% The MIT License (MIT)
%
% Permission is hereby granted, free of charge, to any person obtaining a copy
% of this software and associated documentation files (the "Software"), to deal
% in the Software without restriction, including without limitation the rights
% to use, copy, modify, merge, publish, distribute, sublicense, and/or sell
% copies of the Software, and to permit persons to whom the Software is
% furnished to do so, subject to the following conditions:
%
% The above copyright notice and this permission notice shall be included in
% all copies or substantial portions of the Software.
%
% THE SOFTWARE IS PROVIDED "AS IS", WITHOUT WARRANTY OF ANY KIND, EXPRESS OR
% IMPLIED, INCLUDING BUT NOT LIMITED TO THE WARRANTIES OF MERCHANTABILITY,
% FITNESS FOR A PARTICULAR PURPOSE AND NONINFRINGEMENT. IN NO EVENT SHALL THE
% AUTHORS OR COPYRIGHT HOLDERS BE LIABLE FOR ANY CLAIM, DAMAGES OR OTHER
% LIABILITY, WHETHER IN AN ACTION OF CONTRACT, TORT OR OTHERWISE, ARISING FROM,
% OUT OF OR IN CONNECTION WITH THE SOFTWARE OR THE USE OR OTHER DEALINGS IN
% THE SOFTWARE.

% Vehicle Routing Problem Instance
num_vehicles = 4;
num_customers = 12;
vehicle_capacities = [500, 500, 500, 250];
predicted_demands = [0, 8, 4, 8, 8, 4, 22, 20, 19, 18, 1, 2, 21];
predicted_ETAs = 
  [| 0, 14, 55, 66, 58, 84, 77, 65, 50, 54, 48, 52, 80
   | 14, 0, 53, 51, 62, 48, 43, 35, 46, 51, 64, 4, 38
   | 55, 53, 0, 38, 45, 63, 37, 43, 45, 45, 79, 53, 48
   | 66, 51, 38, 0, 20, 57, 9, 42, 64, 17, 49, 46, 48
   | 58, 62, 45, 20, 0, 22, 51, 53, 23, 39, 69, 53, 51
   | 84, 48, 63, 57, 22, 0, 55, 59, 48, 46, 46, 46, 55
   | 77, 43, 37, 9, 51, 55, 0, 49, 56, 16, 52, 51, 45
   | 65, 35, 43, 42, 53, 59, 49, 0, 59, 74, 52, 62, 69
   | 50, 46, 45, 64, 23, 48, 56, 59, 0, 49, 31, 41, 45
   | 54, 51, 45, 17, 39, 46, 16, 74, 49, 0, 49, 32, 77
   | 48, 64, 79, 49, 69, 46, 52, 52, 31, 49, 0, 36, 58
   | 52, 4, 53, 46, 53, 46, 51, 62, 41, 32, 36, 0, 15
   | 80, 38, 48, 48, 51, 55, 45, 69, 45, 77, 58, 15, 0 |];
